NAME : ar9152
COMMENT : 9152 locations in Argentina
COMMENT : Derived from National Imagery and Mapping Agency data
TYPE : TSP
DIMENSION : 14
EDGE_WEIGHT_TYPE : EUC_2D
NODE_COORD_SECTION
1 36266.6667 62550.0000
2 34600.0000 58633.3333
3 51650.0000 72300.0000
4 37800.0000 67683.3333
5 35428.0556 60174.1667
6 34583.3333 68550.0000
7 27383.3333 54766.6667
8 34533.3333 63166.6667
9 23766.6667 64683.3333
10 32383.3333 59666.6667
11 32383.3333 59666.6667
12 25416.6667 65533.3333
13 31383.3333 64183.3333
14 37916.6667 62933.3333
EOF